[ma. 03. april 18:06:51 +0200 2023]  ./input/alternate_g_np/50-5-1.gcc
Set parameter Username
Academic license - for non-commercial use only - expires 2024-03-28
Set parameter TimeLimit to value 1800
Set parameter PreCrush to value 1
Set parameter LazyConstraints to value 1
Gurobi Optimizer version 10.0.1 build v10.0.1rc0 (linux64)

CPU model: AMD Ryzen 9 5950X 16-Core Processor, instruction set [SSE2|AVX|AVX2]
Thread count: 16 physical cores, 32 logical processors, using up to 32 threads

Optimize a model with 56 rows, 350 columns and 950 nonzeros
Model fingerprint: 0xfaae160b
Variable types: 0 continuous, 350 integer (350 binary)
Coefficient statistics:
  Matrix range     [1e+00, 1e+00]
  Objective range  [1e+00, 1e+02]
  Bounds range     [1e+00, 1e+00]
  RHS range        [1e+00, 1e+00]
Presolve time: 0.00s
Presolved: 56 rows, 350 columns, 950 nonzeros
Variable types: 0 continuous, 350 integer (350 binary)

Root relaxation: objective 2.326000e+03, 6 iterations, 0.00 seconds (0.00 work units)

    Nodes    |    Current Node    |     Objective Bounds      |     Work
 Expl Unexpl |  Obj  Depth IntInf | Incumbent    BestBd   Gap | It/Node Time

     0     0 2326.00000    0    6          - 2326.00000      -     -    0s
     0     0 2326.00000    0    -          - 2326.00000      -     -    0s
     0     0 2326.00000    0    6          - 2326.00000      -     -    0s
     0     0 2326.00000    0    -          - 2326.00000      -     -    0s
     0     0 2326.00000    0    6          - 2326.00000      -     -    0s
     0     0 2326.00000    0    -          - 2326.00000      -     -    0s
     0     0 2326.00000    0    5          - 2326.00000      -     -    0s
     0     2 2326.00000    0    4          - 2326.00000      -     -    0s
 22000 11384 2320.26087   61   80          - 2326.00000      -  27.7    5s
*35395 20310              19     480.0000000 2326.00000   385%  32.6    9s
*36828 20822              29    2055.0000000 2326.00000  13.2%  33.2    9s
 37401 21523 2306.00000   34   51 2055.00000 2326.00000  13.2%  33.7   10s
H37553 19951                    2188.0000000 2326.00000  6.31%  33.7   10s
H37553 10728                    2301.0000000 2326.00000  1.09%  33.7   10s
H38777  6158                    2313.0000000 2326.00000  0.56%  34.3   10s
 46075  4418 2323.60000   27   57 2313.00000 2326.00000  0.56%  52.5   17s
 49765  4193     cutoff   20      2313.00000 2326.00000  0.56%  60.5   20s
 58406  5107 infeasible   42      2313.00000 2326.00000  0.56%  71.3   25s
 66793  4992 infeasible   31      2313.00000 2326.00000  0.56%  74.4   35s
 94044  5112 infeasible   50      2313.00000 2326.00000  0.56%  85.3   42s
 99038  2222 infeasible   50      2313.00000 2326.00000  0.56%  86.3   45s

Cutting planes:
  User: 91
  Lazy constraints: 2974

Explored 108592 nodes (9203835 simplex iterations) in 48.34 seconds (69.14 work units)
Thread count was 32 (of 32 available processors)

Solution count 5: 2313 2301 2188 ... 480

Optimal solution found (tolerance 1.00e-04)
Best objective 2.313000000000e+03, best bound 2.313000000000e+03, gap 0.0000%

User-callback calls 224561, time in user-callback 7.68 sec
Minimal separator inequalities added: 328659
Indegree inequalities added: 0
Passed solution check
[ma. 03. april 18:07:39 +0200 2023]  done

